
  12    4
  10   10   10   10

   0   0   0   0   0   4 2 3 5 11 
  10  10  10  10  10   2 6 4 
   6  10  10  10  10   2 10 6 
   2  10  10  10  10   3 10 9 7 
   1  10  10  10  10   3 10 9 8 
   3  10  10  10  10   2 9 7 
   3  10  10  10  10   1 8 
   1  10  10  10  10   1 12
   3  10  10  10  10   1 12
   2  10  10  10  10   1 12
   9  10  10  10  10   1 12
   0   0   0   0   0   0 
